5 20
0 94  1  3  2 39  3  1  4 63  5 86  6 44  7 19  8 55  9 67 10 98 11 30 12 21 13 63 14 75 15 20 16 57 17 73 18 71 19 38
0 43  1 18  2 23  3 92  4 96  5 36  6 25  7 82  8 46  9 66 10 79 11 63 12 18 13 20 14 56 15 50 16 28 17 11 18 18 19  4
0  6  1 43  2 28  3 83  4 50  5 19  6 85  7 12  8 68  9 66 10 44 11 88 12 98 13 70 14 87 15 37 16 27 17 38 18 93 19 40
0 47  1 41  2 31  3 43  4 12  5 71  6 86  7 70  8 15  9 32 10 90 11 79 12 59 13 12 14 52 15 68 16 51 17 53 18 74 19 98
0 45  1 83  2 86  3  3  4 15  5  8  6 73  7  6  8 55  9  8 10 22 11 44 12 17 13  1 14 77 15 23 16 42 17 79 18 30 19 22
